20
39
39
-19 -6 -36 -6 -5 -15 -30 -18 -20 -18 -31 -29 -35 -14 -22 -34 -6 -35
 -19 -18
-16 -39 -36 -37 -21 -31 -37 -4 -9 -8 -22 -13 -25 -36 -23 -12 -8 -12
 -27 -3
-5 -29 -22 -16 -11 -24 -14 -4 -32 -34 -7 -13 -4 -36 -32 -8 -36 -14
 -3 -33
36 32 25 8 20 6 11 10 34 39 20 38 4 26 6 26 24 5 36 21
2 23 14 9 13 16 5 37 8 21 33 17 28 2 18 35 35 39 39 26
